NAME: a280
COMMENT: Quick (5min) local search tour for a280 (2956.917525419356)
TYPE: TOUR
DIMENSION: 280
TOUR_SECTION: 1 3 279 278 4 5 6 7 9 8 10 11 12 13 14 15 271 16 17 18 19 20 21 128 127 126 125 124 123 122 121 120 119 157 158 159 160 175 174 107 105 106 173 171 172 170 168 91 90 89 109 108 104 103 102 169 101 100 99 98 93 94 95 96 97 92 80 79 76 75 74 73 72 71 70 67 66 65 64 63 62 116 86 113 87 84 85 59 44 45 46 47 48 49 50 51 52 53 54 55 56 57 58 68 69 77 78 81 82 83 88 112 110 111 114 115 117 118 61 60 43 42 41 40 39 38 37 35 36 34 33 30 31 32 29 28 27 26 22 25 23 24 133 132 131 130 129 154 155 153 156 152 151 177 176 181 180 179 178 150 149 148 147 146 145 199 198 197 193 186 187 185 184 183 182 161 162 163 164 167 166 165 188 189 190 191 192 194 195 196 201 204 205 206 253 254 257 258 259 260 277 276 275 274 273 272 261 262 263 264 265 266 267 268 269 270 134 135 136 137 138 139 140 141 142 143 144 200 202 203 221 220 217 216 213 212 211 214 215 218 219 222 223 224 225 226 227 228 229 230 251 250 208 207 210 209 252 255 256 249 248 247 244 241 240 239 238 237 236 235 234 233 232 231 246 245 243 242 280 2 -1
EOF